import DataTypes.dzn;
import ISafetyCheck.dzn;
import Resolver.dzn;
import Sensors.dzn;

component KineticEnergyCheck {
	requires IAccelerationSensor iAccelerationSensor;
	provides ISafetyCheck iKineticEnergyCheck;
	requires ISafetyCheck iNext;
	requires injected IResolver iResolver;

	behaviour {
		// Function to boolean and current and next safety state.
		// If either current or next is Unsafe we return Unsafe.
		Behavior and_safety_states(Behavior current, Behavior next) {
			if(current == Behavior.Unsafe || next == Behavior.Unsafe) {
				return Behavior.Unsafe;
			}
			return Behavior.Safe;
		}
		
		on iKineticEnergyCheck.do_check(): {
			Behavior currSafetyState = Behavior.Safe;
			// TODO: Let the data go through the retriever here.
			iAccelerationSensor.retrieve_ke_from_acc();
			currSafetyState = iResolver.resolve_ke_from_acc();
			
			Behavior nextSafetyState = iNext.do_check();
			Behavior res = and_safety_states(currSafetyState, nextSafetyState); 
			reply(res);
		}
	}
}

//requirement AnyUnsafe {
//	provides IRequirement iKineticEnergyCheck;
//	// component
//	on KineticEnergyCheck;
//
//	behaviour {
//		Behavior b1;
//		Behavior b2;
//		on do_check(): {
//			b1 = iResolver.resolve_ke_from_acc();
//			b2 = next.do_check();
//			// If one of the two is Behavior.Unsafe
//			if (b1 == Behavior.Unsafe || b2 == Behavior.Unsafe) {
//				reply(Behavior.Unsafe);
//			} else {
//				reply(Behavior.Safe);
//			}
//		}
//	}
//}
